17	4
30	31	38	35	
0	0	0	0	0	3	2	3	4	
4	7	1	3	10	1	9	
4	10	10	3	4	1	17	
5	8	5	7	8	3	5	9	11	
3	10	6	7	8	3	6	7	8	
200	5	8	5	5	3	16	17	17	
50	3	1	10	9	2	13	17	
25	3	1	5	4	3	10	12	17	
125	3	5	7	1	1	17	
25	8	6	8	10	2	16	17	
75	2	5	2	9	2	15	17	
150	4	4	3	3	2	14	17	
6	5	9	7	8	2	17	17	
3	5	9	8	4	3	17	17	17	
2	7	7	5	7	2	17	17	
8	8	1	9	10	1	17	
0	0	0	0	0	0	
